InboundTrucks  = 12;
OutboundTrucks = 8;
InboundDoors   = 4;
OutboundDoors  = 4;
ReleaseTime    = [8,41,30,41,51,2,56,31,36,34,18,20];
UnloadTime     = [22,15,42,9,21,45,6,20,31,11,23,39];
LoadTime       = [16,13,6,30,21,9,29,10];
TransferTime   = [| 11,26,0,25,0,0,0,0 | 26,22,0,49,0,22,0,0 | 0,16,0,0,16,0,15,0 | 0,0,37,0,0,0,29,0 | 29,0,18,0,0,0,0,12 | 0,0,36,0,49,13,0,0 | 0,32,0,0,0,0,35,31 | 36,34,0,0,0,13,0,0 | 48,0,0,0,0,0,46,0 | 0,0,27,10,0,0,0,27 | 0,0,26,0,37,0,0,35 | 0,49,19,0,0,0,0,0 |];
